sbml-level-3/version-1/fbc/spec/examples/spec-example1.lp
\\ Example one LP format

Maximize
objective1_objf:  + 1.0 R2

Subject To
 A: + R1 - X1 - X2 = 0.0
 B: - R2 + X1 + X2 = 0.0

Bounds
R1 <= 1.0
0.0 <= R2 <= +inf
0.0 <= X1 <= +inf
0.0 <= X2 <= +inf

END
